406,131
589,121
196,249
491,780
148,490
639,140
885,6
912,-48
874,140
761,446
681,616
515,919
744,343
773,121
732,81
681,136
1006,457
1071,406
830,112
996,177
1020,652
1045,670
1135,637
977,702
782,719
708,459
672,378
468,514
829,429
